;test regex df -m /dev/sda8 | sed -En 's~.* ([0-9]+)([0-9]{3}) +([0-9]+%).*~\1.\2MB/\3~gp'
(declare-const X String)
(assert (str.in_re X (re.union (re.++ (str.to_re "d") (re.++ (str.to_re "f") (re.++ (str.to_re " ") (re.++ (str.to_re "-") (re.++ (str.to_re "m") (re.++ (str.to_re " ") (re.++ (str.to_re "/") (re.++ (str.to_re "d") (re.++ (str.to_re "e") (re.++ (str.to_re "v") (re.++ (str.to_re "/") (re.++ (str.to_re "s") (re.++ (str.to_re "d") (re.++ (str.to_re "a") (re.++ (str.to_re "8") (str.to_re " ")))))))))))))))) (re.++ (str.to_re " ") (re.++ (str.to_re "s") (re.++ (str.to_re "e") (re.++ (str.to_re "d") (re.++ (str.to_re " ") (re.++ (str.to_re "-") (re.++ (str.to_re "E") (re.++ (str.to_re "n") (re.++ (str.to_re " ") (re.++ (str.to_re "\u{27}") (re.++ (str.to_re "s") (re.++ (str.to_re "~") (re.++ (re.* (re.diff re.allchar (str.to_re "\n"))) (re.++ (str.to_re " ") (re.++ (re.+ (re.range "0" "9")) (re.++ ((_ re.loop 3 3) (re.range "0" "9")) (re.++ (re.+ (str.to_re " ")) (re.++ (re.++ (re.+ (re.range "0" "9")) (str.to_re "%")) (re.++ (re.* (re.diff re.allchar (str.to_re "\n"))) (re.++ (str.to_re "~") (re.++ (_ re.reference 1) (re.++ (re.diff re.allchar (str.to_re "\n")) (re.++ (_ re.reference 2) (re.++ (str.to_re "M") (re.++ (str.to_re "B") (re.++ (str.to_re "/") (re.++ (_ re.reference 3) (re.++ (str.to_re "~") (re.++ (str.to_re "g") (re.++ (str.to_re "p") (str.to_re "\u{27}"))))))))))))))))))))))))))))))))))
; sanitize danger characters:  < > ' " &
(assert (not (str.in_re X (re.++ re.all (re.union (str.to_re "\u{3c}") (str.to_re "\u{3e}") (str.to_re "\u{27}") (str.to_re "\u{22}") (str.to_re "\u{26}")) re.all))))
(assert (< 9 (str.len X)))
(check-sat)
(get-model)